NAME: random-95-8062
TYPE: TSP
COMMENT: size=95 seed=8062
DIMENSION: 192
EDGE_WEIGHT_TYPE: EUC_2D
NODE_COORD_SECTION
+0 34 618
-0 34 618
+1 795 909
-1 515 405
+2 254 813
-2 403 241
+3 251 738
-3 337 496
+4 4 84
-4 203 858
+5 631 686
-5 2 587
+6 533 390
-6 711 899
+7 201 926
-7 681 44
+8 339 400
-8 922 284
+9 998 832
-9 15 487
+10 777 777
-10 944 601
+11 26 695
-11 612 238
+12 922 988
-12 249 889
+13 244 776
-13 704 106
+14 154 460
-14 350 250
+15 193 943
-15 224 404
+16 424 532
-16 759 339
+17 56 528
-17 184 710
+18 619 357
-18 940 100
+19 764 491
-19 417 255
+20 699 358
-20 829 212
+21 701 565
-21 565 392
+22 83 15
-22 296 183
+23 947 398
-23 669 552
+24 58 646
-24 519 772
+25 905 130
-25 197 597
+26 861 820
-26 178 512
+27 952 402
-27 564 618
+28 453 743
-28 431 640
+29 468 133
-29 649 547
+30 869 723
-30 300 516
+31 738 882
-31 39 562
+32 46 324
-32 354 998
+33 920 853
-33 384 27
+34 974 861
-34 351 263
+35 801 328
-35 255 16
+36 423 115
-36 159 660
+37 66 486
-37 837 120
+38 538 108
-38 417 595
+39 331 370
-39 993 134
+40 920 892
-40 120 954
+41 240 785
-41 254 160
+42 906 479
-42 133 848
+43 785 127
-43 244 165
+44 220 275
-44 115 224
+45 271 492
-45 777 801
+46 623 325
-46 486 301
+47 274 860
-47 975 903
+48 90 353
-48 579 386
+49 761 335
-49 71 168
+50 690 623
-50 890 534
+51 190 726
-51 638 937
+52 527 575
-52 383 212
+53 241 719
-53 868 539
+54 711 62
-54 769 759
+55 249 712
-55 145 437
+56 657 391
-56 34 316
+57 96 979
-57 4 495
+58 733 74
-58 200 446
+59 395 965
-59 351 275
+60 578 595
-60 467 931
+61 585 989
-61 974 710
+62 384 579
-62 740 27
+63 698 453
-63 631 189
+64 792 880
-64 784 147
+65 373 443
-65 544 434
+66 725 301
-66 920 633
+67 203 92
-67 282 117
+68 526 882
-68 708 31
+69 15 255
-69 65 22
+70 251 667
-70 86 292
+71 599 246
-71 676 807
+72 721 716
-72 292 661
+73 578 715
-73 413 741
+74 30 265
-74 593 583
+75 675 598
-75 201 110
+76 415 694
-76 930 527
+77 618 614
-77 501 319
+78 679 932
-78 957 943
+79 143 41
-79 372 123
+80 46 311
-80 67 733
+81 763 377
-81 511 787
+82 50 425
-82 876 478
+83 678 354
-83 304 878
+84 351 910
-84 670 305
+85 255 463
-85 689 374
+86 564 204
-86 42 799
+87 146 470
-87 663 911
+88 133 666
-88 357 752
+89 40 433
-89 749 472
+90 711 684
-90 984 465
+91 884 801
-91 911 138
+92 607 598
-92 361 308
+93 587 704
-93 931 205
+94 390 220
-94 423 364
+95 855 10
-95 923 221
PRECEDENCE_SECTION
+0 -0
+1 -1
+2 -2
+3 -3
+4 -4
+5 -5
+6 -6
+7 -7
+8 -8
+9 -9
+10 -10
+11 -11
+12 -12
+13 -13
+14 -14
+15 -15
+16 -16
+17 -17
+18 -18
+19 -19
+20 -20
+21 -21
+22 -22
+23 -23
+24 -24
+25 -25
+26 -26
+27 -27
+28 -28
+29 -29
+30 -30
+31 -31
+32 -32
+33 -33
+34 -34
+35 -35
+36 -36
+37 -37
+38 -38
+39 -39
+40 -40
+41 -41
+42 -42
+43 -43
+44 -44
+45 -45
+46 -46
+47 -47
+48 -48
+49 -49
+50 -50
+51 -51
+52 -52
+53 -53
+54 -54
+55 -55
+56 -56
+57 -57
+58 -58
+59 -59
+60 -60
+61 -61
+62 -62
+63 -63
+64 -64
+65 -65
+66 -66
+67 -67
+68 -68
+69 -69
+70 -70
+71 -71
+72 -72
+73 -73
+74 -74
+75 -75
+76 -76
+77 -77
+78 -78
+79 -79
+80 -80
+81 -81
+82 -82
+83 -83
+84 -84
+85 -85
+86 -86
+87 -87
+88 -88
+89 -89
+90 -90
+91 -91
+92 -92
+93 -93
+94 -94
+95 -95
EOF
